#######################################
### Exact MIP solver for the HHCRSP ###
#######################################
-- Instance file: new-instances/HHCRSP_300_60_95_1.0_R_C.txt
-- Max threads: 4
-- Time limit: 999999 seconds
-- Use initial solution: No
Trivial flow violations prevented generating 1182080 variables.
Version identifier: 20.1.0.0 | 2020-11-10 | 9bedb6d68
CPXPARAM_Threads                                 4
CPXPARAM_TimeLimit                               999999
Parallel mode: deterministic, using up to 4 threads for concurrent optimization:
 * Starting dual Simplex on 1 thread...
 * Starting Barrier on 3 threads...
Tried aggregator 1 time.
LP Presolve eliminated 50226 rows and 12484 columns.
Reduced LP has 1444886 rows, 1372456 columns, and 33523701 nonzeros.
Presolve time = 42.69 sec. (7328.42 ticks)
Symmetry aggregator did 2409548 additional substitutions.

Iteration log . . .
Iteration:     1   Dual objective     =             0.000000
Iteration:  1356   Dual objective     =           274.666667

Dual crossover.
  Dual:  Fixing 1636 variables.
     1635 DMoves:  Infeasibility  1.78951299e-12  Objective  2.76666667e+02
        0 DMoves:  Infeasibility  6.72725769e-13  Objective  2.76666667e+02
  Dual:  Pushed 28, exchanged 1608.
  Primal:  Fixing 1638 variables.
     1637 PMoves:  Infeasibility  8.32667268e-17  Objective  2.76666667e+02
        0 PMoves:  Infeasibility  1.66533454e-16  Objective  2.76666667e+02
  Primal:  Pushed 1477, exchanged 161.

Dual simplex solved model.


Solution status from MIP model:
-- Processing time: 65.665 sec.
-- Memory used: 1225.46 MB
-- Best bound: inf
-- Obj value: 276.667
-- Gap: inf%
-- Total distance: 830
-- Total tardiness: 0
-- Largest tardiness: 0
